
  17    4
  10   10   10   10

   0   0   0   0   0   4 2 3 4 7 
   4  10  10  10  10   4 16 8 6 5 
   8  10  10  10  10   4 11 8 6 5 
   1  10  10  10  10   4 15 14 10 8 
   6  10  10  10  10   4 15 14 10 9 
  10  10  10  10  10   3 15 14 10 
   6  10  10  10  10   3 16 15 9 
   9  10  10  10  10   1 9 
   8  10  10  10  10   2 13 12 
   3  10  10  10  10   2 13 12 
   3  10  10  10  10   2 14 12 
  10  10  10  10  10   1 17
   9  10  10  10  10   1 17
   3  10  10  10  10   1 17
   4  10  10  10  10   1 17
   1  10  10  10  10   1 17
   0   0   0   0   0   0 
